************************************************************************
file with basedata            : mm50_.bas
initial value random generator: 1256871276
************************************************************************
projects                      :  1
jobs (incl. supersource/sink ):  12
horizon                       :  76
RESOURCES
  - renewable                 :  2   R
  - nonrenewable              :  2   N
  - doubly constrained        :  0   D
************************************************************************
PROJECT INFORMATION:
pronr.  #jobs rel.date duedate tardcost  MPM-Time
    1     10      0        9        4        9
************************************************************************
PRECEDENCE RELATIONS:
jobnr.    #modes  #successors   successors
   0        1          3           1   2   3
   1        3          1           7
   2        3          2           5   9
   3        3          2           4   6
   4        3          2           8   9
   5        3          1          10
   6        3          1           8
   7        3          3           8   9  10
   8        3          1          11
   9        3          1          11
  10        3          1          11
  11        1          0        
************************************************************************
REQUESTS/DURATIONS:
jobnr. mode duration  R 1  R 2  R 3  R 4  E(W 1)
------------------------------------------------------------------------
  0      1     0       0    0    0    0     0
  1      1     4       9    5    0    8    88
  2      1     4       8    7    0    5    80
  3      1     2       6   10    0    7    46
  4      1     4       9    9    5    0    92
  5      1     1       5    8    5    0    18
  6      1     2       7    8    4    0    38
  7      1     1       6    4    4    0    14
  8      1     1       9    9    5    0    23
  9      1     3       4    9    0    5    54
 10      1     4       5   10    6    0    84
 11      1     0       0    0    0    0     0
************************************************************************
RESOURCEAVAILABILITIES:
  R 1
   108
************************************************************************
RESOURCE LIMITS:
jobnr.  l(R 1)  u(R 1)
------------------------------------------------------------------------
  0        0       0
  1       12      22
  2       11      20
  3       12      23
  4       13      23
  5       10      18
  6       10      19
  7        7      14
  8       13      23
  9       10      18
 10       11      21
 11        0       0
************************************************************************
SCENARIOS:
------------------------------------------------------------------------
RESOURCE k = 1
s = 1: (0, 76, 85, 43, 121, 15, 47, 17, 26, 68, 107, 0)
s = 2: (0, 109, 78, 30, 125, 27, 44, 11, 15, 55, 81, 0)
s = 3: (0, 59, 114, 39, 99, 11, 36, 12, 37, 45, 77, 0)
s = 4: (0, 66, 83, 57, 105, 15, 33, 9, 25, 44, 104, 0)
s = 5: (0, 52, 57, 42, 80, 28, 68, 15, 32, 57, 66, 0)
s = 6: (0, 130, 93, 49, 111, 14, 46, 18, 26, 40, 108, 0)
s = 7: (0, 80, 50, 68, 97, 18, 46, 11, 24, 33, 111, 0)
s = 8: (0, 118, 115, 38, 93, 15, 52, 16, 18, 52, 77, 0)
s = 9: (0, 111, 71, 47, 117, 13, 57, 16, 22, 29, 87, 0)
s = 10: (0, 106, 59, 38, 102, 17, 55, 11, 19, 77, 79, 0)
s = 11: (0, 120, 53, 37, 111, 24, 44, 15, 37, 53, 141, 0)
s = 12: (0, 58, 81, 79, 74, 26, 37, 15, 22, 61, 70, 0)
s = 13: (0, 87, 92, 44, 101, 17, 43, 11, 37, 44, 56, 0)
s = 14: (0, 80, 124, 34, 79, 18, 36, 10, 37, 57, 99, 0)
s = 15: (0, 79, 113, 42, 71, 19, 40, 18, 21, 43, 58, 0)
s = 16: (0, 49, 69, 59, 118, 15, 39, 13, 19, 53, 75, 0)
s = 17: (0, 99, 60, 39, 106, 13, 35, 14, 16, 38, 63, 0)
s = 18: (0, 71, 103, 57, 114, 26, 34, 18, 14, 36, 122, 0)
s = 19: (0, 91, 59, 74, 115, 26, 53, 16, 33, 51, 62, 0)
s = 20: (0, 66, 60, 36, 105, 18, 41, 12, 19, 39, 76, 0)
s = 21: (0, 123, 60, 40, 72, 25, 25, 16, 23, 45, 79, 0)
s = 22: (0, 51, 58, 60, 91, 22, 33, 12, 18, 35, 96, 0)
s = 23: (0, 55, 89, 46, 94, 17, 42, 9, 27, 73, 73, 0)
s = 24: (0, 76, 53, 49, 78, 17, 23, 10, 26, 45, 47, 0)
s = 25: (0, 75, 61, 32, 65, 18, 36, 12, 15, 48, 111, 0)
s = 26: (0, 100, 78, 38, 76, 11, 43, 14, 17, 67, 104, 0)
s = 27: (0, 60, 58, 37, 51, 18, 48, 15, 15, 33, 94, 0)
s = 28: (0, 96, 62, 41, 112, 31, 50, 15, 18, 49, 50, 0)
s = 29: (0, 106, 49, 53, 140, 21, 43, 21, 27, 34, 72, 0)
s = 30: (0, 91, 77, 59, 137, 22, 38, 13, 14, 47, 55, 0)
s = 31: (0, 80, 55, 37, 87, 13, 29, 9, 16, 38, 91, 0)
s = 32: (0, 76, 93, 49, 155, 16, 44, 9, 24, 82, 93, 0)
s = 33: (0, 68, 98, 62, 119, 20, 22, 12, 23, 67, 65, 0)
s = 34: (0, 61, 67, 63, 130, 19, 29, 14, 19, 35, 130, 0)
s = 35: (0, 113, 78, 41, 73, 17, 52, 20, 17, 41, 111, 0)
s = 36: (0, 108, 54, 44, 115, 16, 51, 17, 32, 80, 80, 0)
s = 37: (0, 62, 99, 53, 102, 24, 51, 19, 40, 91, 54, 0)
s = 38: (0, 54, 91, 36, 105, 22, 35, 18, 17, 58, 108, 0)
s = 39: (0, 53, 84, 47, 141, 12, 53, 16, 34, 36, 122, 0)
s = 40: (0, 62, 74, 30, 68, 19, 43, 9, 31, 103, 85, 0)
s = 41: (0, 77, 74, 64, 79, 17, 35, 15, 19, 46, 100, 0)
s = 42: (0, 83, 50, 31, 128, 18, 37, 21, 38, 51, 66, 0)
s = 43: (0, 91, 62, 62, 71, 29, 41, 21, 15, 53, 61, 0)
s = 44: (0, 81, 86, 63, 84, 18, 33, 11, 19, 44, 65, 0)
s = 45: (0, 69, 67, 55, 110, 26, 31, 9, 33, 39, 90, 0)
s = 46: (0, 91, 88, 66, 94, 16, 33, 19, 29, 66, 76, 0)
s = 47: (0, 112, 51, 51, 54, 19, 38, 9, 25, 52, 51, 0)
s = 48: (0, 84, 104, 75, 60, 18, 30, 23, 18, 55, 110, 0)
s = 49: (0, 95, 89, 79, 72, 13, 48, 19, 25, 72, 128, 0)
s = 50: (0, 105, 90, 66, 73, 19, 52, 14, 31, 53, 119, 0)
s = 51: (0, 45, 57, 47, 71, 13, 25, 8, 23, 66, 84, 0)
s = 52: (0, 86, 145, 34, 59, 22, 25, 13, 38, 51, 135, 0)
s = 53: (0, 65, 59, 39, 110, 21, 39, 12, 24, 65, 81, 0)
s = 54: (0, 82, 94, 56, 76, 17, 26, 17, 37, 82, 71, 0)
s = 55: (0, 110, 57, 36, 81, 24, 39, 22, 16, 76, 106, 0)
s = 56: (0, 107, 106, 42, 129, 13, 37, 15, 37, 55, 88, 0)
s = 57: (0, 106, 87, 43, 138, 17, 31, 9, 17, 46, 99, 0)
s = 58: (0, 112, 60, 56, 61, 16, 38, 20, 14, 33, 125, 0)
s = 59: (0, 105, 66, 29, 74, 15, 43, 16, 27, 42, 131, 0)
s = 60: (0, 117, 63, 53, 100, 17, 34, 17, 16, 42, 73, 0)
s = 61: (0, 76, 51, 51, 93, 18, 39, 13, 30, 49, 136, 0)
s = 62: (0, 69, 88, 51, 118, 10, 30, 13, 21, 66, 125, 0)
s = 63: (0, 64, 63, 68, 93, 10, 56, 12, 26, 46, 101, 0)
s = 64: (0, 72, 90, 41, 106, 15, 44, 13, 26, 46, 78, 0)
s = 65: (0, 89, 88, 51, 136, 11, 36, 9, 28, 82, 89, 0)
s = 66: (0, 130, 56, 69, 88, 10, 50, 16, 17, 56, 59, 0)
s = 67: (0, 123, 107, 49, 80, 15, 32, 16, 28, 76, 104, 0)
s = 68: (0, 82, 52, 44, 67, 20, 49, 13, 39, 66, 93, 0)
s = 69: (0, 70, 87, 34, 86, 21, 28, 19, 17, 62, 90, 0)
s = 70: (0, 94, 70, 56, 139, 12, 31, 15, 20, 74, 70, 0)
s = 71: (0, 95, 70, 49, 82, 19, 47, 9, 14, 62, 100, 0)
s = 72: (0, 110, 99, 40, 82, 15, 46, 21, 32, 52, 75, 0)
s = 73: (0, 69, 63, 44, 57, 12, 45, 14, 24, 66, 69, 0)
s = 74: (0, 103, 45, 53, 86, 14, 35, 16, 39, 40, 124, 0)
s = 75: (0, 78, 95, 43, 104, 26, 35, 18, 36, 43, 54, 0)
s = 76: (0, 127, 113, 57, 61, 21, 37, 18, 18, 49, 93, 0)
s = 77: (0, 81, 101, 54, 105, 14, 26, 24, 27, 56, 76, 0)
s = 78: (0, 115, 42, 59, 99, 21, 23, 17, 30, 72, 101, 0)
s = 79: (0, 108, 64, 37, 93, 13, 34, 17, 37, 59, 59, 0)
s = 80: (0, 156, 92, 61, 71, 23, 21, 14, 14, 65, 90, 0)
s = 81: (0, 104, 92, 50, 89, 14, 39, 18, 18, 60, 90, 0)
s = 82: (0, 108, 74, 24, 75, 17, 43, 11, 30, 48, 77, 0)
s = 83: (0, 124, 56, 57, 70, 13, 54, 12, 23, 55, 94, 0)
s = 84: (0, 67, 70, 48, 87, 19, 25, 26, 17, 73, 141, 0)
s = 85: (0, 93, 87, 32, 64, 16, 33, 11, 21, 49, 106, 0)
s = 86: (0, 68, 81, 56, 69, 13, 35, 19, 22, 45, 86, 0)
s = 87: (0, 62, 112, 32, 97, 11, 40, 11, 28, 31, 114, 0)
s = 88: (0, 88, 67, 43, 169, 20, 31, 14, 18, 47, 65, 0)
s = 89: (0, 62, 159, 34, 93, 21, 38, 17, 19, 50, 132, 0)
s = 90: (0, 85, 59, 32, 103, 14, 30, 13, 24, 67, 73, 0)
s = 91: (0, 75, 59, 54, 77, 19, 59, 14, 35, 78, 77, 0)
s = 92: (0, 73, 51, 60, 55, 16, 35, 13, 33, 38, 106, 0)
s = 93: (0, 68, 101, 39, 123, 13, 28, 12, 31, 73, 81, 0)
s = 94: (0, 63, 76, 60, 86, 22, 46, 20, 19, 41, 71, 0)
s = 95: (0, 60, 69, 73, 73, 21, 48, 13, 21, 59, 108, 0)
s = 96: (0, 110, 132, 47, 76, 24, 29, 14, 23, 38, 74, 0)
s = 97: (0, 80, 75, 54, 70, 12, 41, 8, 24, 48, 67, 0)
s = 98: (0, 68, 56, 27, 54, 17, 27, 14, 30, 55, 77, 0)
s = 99: (0, 87, 50, 34, 83, 16, 41, 17, 26, 43, 122, 0)
s = 100: (0, 91, 50, 50, 88, 16, 33, 12, 20, 68, 75, 0)
s = 101: (0, 71, 103, 26, 89, 15, 36, 13, 37, 72, 82, 0)
s = 102: (0, 63, 55, 26, 52, 16, 29, 11, 29, 52, 88, 0)
s = 103: (0, 70, 103, 73, 110, 32, 62, 13, 15, 45, 71, 0)
s = 104: (0, 82, 89, 75, 103, 17, 36, 13, 15, 82, 54, 0)
s = 105: (0, 140, 131, 31, 57, 16, 45, 12, 14, 33, 109, 0)
s = 106: (0, 75, 112, 53, 81, 14, 44, 16, 25, 65, 95, 0)
s = 107: (0, 99, 95, 36, 66, 26, 43, 16, 30, 36, 85, 0)
s = 108: (0, 85, 73, 39, 64, 13, 24, 11, 13, 68, 54, 0)
s = 109: (0, 90, 84, 25, 60, 18, 26, 13, 30, 33, 54, 0)
s = 110: (0, 77, 82, 48, 87, 25, 23, 11, 25, 32, 87, 0)
s = 111: (0, 113, 85, 29, 89, 12, 35, 12, 17, 77, 70, 0)
s = 112: (0, 99, 55, 72, 132, 13, 39, 12, 20, 43, 87, 0)
s = 113: (0, 77, 113, 27, 63, 16, 44, 14, 35, 55, 89, 0)
s = 114: (0, 111, 108, 47, 72, 30, 50, 10, 18, 46, 90, 0)
s = 115: (0, 130, 112, 72, 119, 16, 25, 9, 22, 64, 55, 0)
s = 116: (0, 87, 94, 41, 83, 18, 39, 14, 30, 74, 119, 0)
s = 117: (0, 150, 80, 60, 64, 22, 28, 20, 18, 79, 89, 0)
s = 118: (0, 114, 107, 57, 68, 12, 30, 20, 32, 49, 68, 0)
s = 119: (0, 90, 87, 52, 85, 19, 39, 10, 26, 43, 82, 0)
s = 120: (0, 69, 125, 51, 112, 19, 30, 17, 40, 36, 63, 0)
s = 121: (0, 92, 61, 38, 132, 19, 37, 13, 20, 55, 96, 0)
s = 122: (0, 100, 80, 38, 125, 19, 42, 13, 24, 51, 88, 0)
s = 123: (0, 71, 44, 78, 84, 12, 35, 26, 16, 51, 84, 0)
s = 124: (0, 100, 105, 36, 128, 17, 29, 19, 18, 37, 103, 0)
s = 125: (0, 99, 64, 65, 66, 23, 54, 10, 21, 38, 88, 0)
s = 126: (0, 54, 106, 68, 85, 14, 35, 16, 14, 36, 85, 0)
s = 127: (0, 108, 53, 31, 105, 30, 40, 11, 16, 55, 132, 0)
s = 128: (0, 55, 47, 63, 92, 24, 20, 15, 20, 52, 53, 0)
s = 129: (0, 86, 81, 54, 67, 15, 30, 13, 24, 34, 56, 0)
s = 130: (0, 90, 90, 28, 81, 16, 38, 11, 25, 53, 82, 0)
s = 131: (0, 114, 80, 30, 95, 33, 51, 11, 39, 37, 82, 0)
s = 132: (0, 73, 81, 47, 80, 28, 21, 20, 19, 63, 55, 0)
s = 133: (0, 59, 72, 38, 105, 23, 36, 9, 21, 46, 117, 0)
s = 134: (0, 102, 78, 51, 64, 25, 30, 21, 16, 64, 75, 0)
s = 135: (0, 127, 77, 52, 82, 20, 50, 17, 17, 64, 97, 0)
s = 136: (0, 69, 92, 73, 121, 20, 63, 20, 35, 70, 67, 0)
s = 137: (0, 66, 118, 50, 133, 21, 44, 16, 37, 54, 131, 0)
s = 138: (0, 106, 86, 43, 84, 20, 41, 11, 29, 55, 60, 0)
s = 139: (0, 68, 51, 46, 87, 27, 51, 17, 35, 37, 107, 0)
s = 140: (0, 92, 58, 29, 113, 19, 38, 17, 23, 48, 95, 0)
s = 141: (0, 114, 86, 49, 97, 18, 34, 17, 18, 53, 59, 0)
s = 142: (0, 130, 101, 36, 89, 12, 33, 23, 20, 34, 69, 0)
s = 143: (0, 97, 68, 37, 91, 13, 35, 16, 25, 44, 132, 0)
s = 144: (0, 59, 69, 31, 102, 29, 37, 26, 14, 46, 62, 0)
s = 145: (0, 110, 60, 39, 61, 26, 37, 11, 28, 37, 48, 0)
s = 146: (0, 73, 41, 40, 106, 23, 38, 12, 26, 41, 50, 0)
s = 147: (0, 64, 69, 72, 98, 13, 40, 9, 20, 39, 93, 0)
s = 148: (0, 89, 71, 57, 86, 21, 41, 18, 32, 72, 109, 0)
s = 149: (0, 139, 118, 45, 123, 17, 38, 11, 36, 36, 64, 0)
s = 150: (0, 75, 112, 31, 60, 16, 39, 11, 17, 51, 104, 0)
s = 151: (0, 71, 74, 40, 137, 21, 31, 13, 24, 73, 61, 0)
s = 152: (0, 49, 70, 61, 114, 18, 26, 13, 21, 74, 89, 0)
s = 153: (0, 132, 96, 35, 95, 22, 42, 11, 24, 54, 61, 0)
s = 154: (0, 85, 77, 50, 173, 19, 42, 15, 22, 40, 71, 0)
s = 155: (0, 89, 103, 46, 106, 10, 40, 17, 21, 40, 112, 0)
s = 156: (0, 85, 114, 42, 100, 13, 35, 19, 32, 38, 73, 0)
s = 157: (0, 83, 81, 55, 131, 22, 36, 16, 21, 63, 57, 0)
s = 158: (0, 74, 60, 36, 161, 27, 53, 10, 20, 75, 103, 0)
s = 159: (0, 64, 82, 38, 95, 15, 44, 20, 14, 47, 143, 0)
s = 160: (0, 76, 81, 48, 109, 17, 36, 14, 13, 51, 128, 0)
s = 161: (0, 105, 99, 61, 52, 29, 38, 17, 26, 84, 128, 0)
s = 162: (0, 121, 71, 55, 117, 22, 58, 16, 38, 60, 117, 0)
s = 163: (0, 59, 56, 28, 63, 20, 36, 20, 30, 52, 127, 0)
s = 164: (0, 98, 126, 41, 82, 14, 50, 19, 28, 35, 76, 0)
s = 165: (0, 144, 90, 38, 65, 23, 24, 23, 23, 44, 104, 0)
s = 166: (0, 66, 65, 58, 87, 19, 72, 13, 23, 57, 74, 0)
s = 167: (0, 65, 118, 34, 78, 25, 43, 13, 42, 55, 104, 0)
s = 168: (0, 61, 50, 58, 54, 16, 29, 19, 28, 38, 104, 0)
s = 169: (0, 74, 46, 33, 96, 22, 43, 18, 26, 53, 113, 0)
s = 170: (0, 98, 71, 70, 64, 24, 49, 15, 18, 71, 118, 0)
s = 171: (0, 127, 44, 63, 78, 16, 42, 10, 20, 53, 78, 0)
s = 172: (0, 113, 63, 41, 76, 17, 41, 16, 19, 67, 112, 0)
s = 173: (0, 118, 56, 45, 94, 27, 33, 9, 15, 79, 82, 0)
s = 174: (0, 114, 66, 51, 163, 13, 28, 13, 34, 55, 70, 0)
s = 175: (0, 65, 59, 38, 69, 22, 59, 14, 15, 44, 87, 0)
s = 176: (0, 61, 80, 47, 114, 21, 24, 11, 14, 62, 70, 0)
s = 177: (0, 64, 82, 27, 69, 13, 45, 22, 21, 60, 83, 0)
s = 178: (0, 125, 86, 42, 119, 15, 55, 13, 28, 68, 102, 0)
s = 179: (0, 81, 62, 40, 132, 15, 38, 15, 26, 48, 127, 0)
s = 180: (0, 83, 71, 46, 72, 17, 29, 20, 24, 43, 114, 0)
s = 181: (0, 60, 60, 39, 80, 15, 52, 9, 18, 63, 89, 0)
s = 182: (0, 53, 68, 47, 95, 15, 28, 10, 19, 48, 60, 0)
s = 183: (0, 79, 72, 61, 88, 16, 48, 14, 16, 73, 110, 0)
s = 184: (0, 104, 56, 48, 86, 18, 31, 16, 29, 86, 89, 0)
s = 185: (0, 85, 95, 31, 108, 18, 30, 12, 16, 55, 90, 0)
s = 186: (0, 96, 88, 51, 91, 24, 40, 24, 29, 57, 114, 0)
s = 187: (0, 154, 89, 39, 80, 16, 23, 10, 25, 72, 95, 0)
s = 188: (0, 55, 70, 43, 117, 17, 44, 23, 16, 41, 60, 0)
s = 189: (0, 105, 125, 44, 75, 15, 44, 11, 22, 62, 112, 0)
s = 190: (0, 70, 79, 48, 91, 16, 27, 10, 20, 66, 68, 0)
s = 191: (0, 81, 93, 47, 91, 22, 35, 13, 24, 42, 135, 0)
s = 192: (0, 94, 108, 71, 79, 17, 34, 15, 42, 46, 109, 0)
s = 193: (0, 101, 82, 63, 63, 10, 47, 17, 20, 54, 59, 0)
s = 194: (0, 116, 98, 33, 104, 17, 28, 15, 26, 50, 75, 0)
s = 195: (0, 60, 87, 31, 88, 14, 40, 12, 34, 52, 104, 0)
s = 196: (0, 80, 56, 31, 114, 18, 29, 16, 21, 46, 60, 0)
s = 197: (0, 90, 74, 27, 102, 17, 54, 15, 16, 60, 102, 0)
s = 198: (0, 68, 85, 41, 55, 20, 51, 20, 25, 51, 101, 0)
s = 199: (0, 91, 112, 34, 109, 19, 46, 9, 22, 54, 75, 0)
s = 200: (0, 126, 124, 30, 131, 25, 54, 10, 18, 69, 108, 0)
************************************************************************
ES/LS-VALUES:
jobnr.   ES(i)    LS(i)
------------------------------------------------------------------------
  0        0        0
  1        0       59
  2        0       59
  3        0       58
  4        3       62
  5        7       67
  6        3       70
  7        7       67
  8       10       74
  9       10       70
 10        8       69
 11       15       76
************************************************************************
BIG-M-VALUES:
M1 = 15, M2 = 173
************************************************************************
